(set-option :auto-config false)
(set-option :model true)
(set-option :model.partial false)

(set-option :smt.mbqi false)

(define-sort Str () Int)
(declare-fun strLen (Str) Int)
(declare-fun subString (Str Int Int) Str)
(declare-fun concatString (Str Str) Str)
(define-sort Elt () Int)
(define-sort LSet () (Array Elt Bool))
(define-fun smt_set_emp () LSet ((as const LSet) false))
(define-fun smt_set_mem ((x Elt) (s LSet)) Bool (select s x))
(define-fun smt_set_add ((s LSet) (x Elt)) LSet (store s x true))
(define-fun smt_set_cup ((s1 LSet) (s2 LSet)) LSet ((_ map or) s1 s2))
(define-fun smt_set_cap ((s1 LSet) (s2 LSet)) LSet ((_ map and) s1 s2))
(define-fun smt_set_com ((s LSet)) LSet ((_ map not) s))
(define-fun smt_set_dif ((s1 LSet) (s2 LSet)) LSet (smt_set_cap s1 (smt_set_com s2)))
(define-fun smt_set_sub ((s1 LSet) (s2 LSet)) Bool (= smt_set_emp (smt_set_dif s1 s2)))
(define-sort Map () (Array Elt Elt))
(define-fun smt_map_sel ((m Map) (k Elt)) Elt (select m k))
(define-fun smt_map_sto ((m Map) (k Elt) (v Elt)) Map (store m k v))
(define-fun smt_map_cup ((m1 Map) (m2 Map)) Map ((_ map (+ (Elt Elt) Elt)) m1 m2))
(define-fun smt_map_def ((v Elt)) Map ((as const (Map)) v))
(define-fun bool_to_int ((b Bool)) Int (ite b 1 0))
(define-fun Z3_OP_MUL ((x Int) (y Int)) Int (* x y))
(define-fun Z3_OP_DIV ((x Int) (y Int)) Int (div x y))
(declare-fun GHC.Base.id () Int)
(declare-fun cast_as_int () Int)
(declare-fun GHC.List.init () Int)
(declare-fun addrLen () Int)
(declare-fun Irc.Event.ERawMsg () Int)
(declare-fun papp5 () Int)
(declare-fun GHC.List.iterate () Int)
(declare-fun x_Tuple21 () Int)
(declare-fun GHC.Classes.$61$$61$ () Int)
(declare-fun Irc.Event.EPong () Int)
(declare-fun GHC.Types.C$35$ () Int)
(declare-fun GHC.List.drop () Int)
(declare-fun lq_anf$36$$35$$35$7205759403792802983$35$$35$d2rl () Int)
(declare-fun Data.Foldable.length () Int)
(declare-fun x_Tuple33 () Int)
(declare-fun lq_anf$36$$35$$35$7205759403792802953$35$$35$d2qR () Int)
(declare-fun GHC.Types.LT () Int)
(declare-fun GHC.List.replicate () Int)
(declare-fun GHC.List.zipWith () Int)
(declare-fun GHC.Classes.$62$$61$ () Int)
(declare-fun lit$36$Irc.Event () Str)
(declare-fun GHC.Num.fromInteger () Int)
(declare-fun papp3 () Int)
(declare-fun Irc.Event.EMode () Int)
(declare-fun lq_anf$36$$35$$35$7205759403792802948$35$$35$d2qM () Int)
(declare-fun GHC.List.span () Int)
(declare-fun GHC.Classes.$62$ () Int)
(declare-fun GHC.Types.False () Bool)
(declare-fun fix$36$$36$cshowsPrec$35$$35$a2dF () Int)
(declare-fun GHC.List.scanr1 () Int)
(declare-fun Irc.Event.ENumeric () Int)
(declare-fun lit$36$ENotice () Str)
(declare-fun GHC.Types.$58$ () Int)
(declare-fun GHC.List.scanl () Int)
(declare-fun GHC.Types.krep$36$$42$ () Int)
(declare-fun GHC.Base.getTag () Int)
(declare-fun GHC.Tuple.$40$$44$$44$$41$ () Int)
(declare-fun papp4 () Int)
(declare-fun GHC.Types.Module () Int)
(declare-fun GHC.List.zip () Int)
(declare-fun fix$36$$36$cshowList$35$$35$a2dT () Int)
(declare-fun lit$36$$39$ENotice () Str)
(declare-fun GHC.Tuple.$40$$41$ () Int)
(declare-fun GHC.Types.I$35$ () Int)
(declare-fun GHC.CString.unpackCString$35$ () Int)
(declare-fun fix$36$$36$c$61$$61$$35$$35$a1JH () Int)
(declare-fun GHC.Types.KindRepFun () Int)
(declare-fun Irc.Event.EInvite () Int)
(declare-fun GHC.Types.KindRepTYPE () Int)
(declare-fun GHC.List.dropWhile () Int)
(declare-fun GHC.Real.C$58$Fractional () Int)
(declare-fun lq_anf$36$$35$$35$7205759403792802978$35$$35$d2rg () Int)
(declare-fun autolen () Int)
(declare-fun lq_tmp$36$x$35$$35$788 () Int)
(declare-fun GHC.Integer.Type.$36$WJn$35$ () Int)
(declare-fun GHC.Real.$94$ () Int)
(declare-fun head () Int)
(declare-fun lit$36$ENumeric () Str)
(declare-fun GHC.Types.$36$WKindRepTYPE () Int)
(declare-fun lit$36$$39$EPrivMsg () Str)
(declare-fun Irc.Event.EJoin () Int)
(declare-fun GHC.Integer.Type.Jn$35$ () Int)
(declare-fun GHC.Show.$36$dmshowList () Int)
(declare-fun GHC.Classes.compare () Int)
(declare-fun lq_tmp$36$x$35$$35$774 () Int)
(declare-fun lq_anf$36$$35$$35$7205759403792802938$35$$35$d2qC () Int)
(declare-fun lq_anf$36$$35$$35$7205759403792802933$35$$35$d2qx () Int)
(declare-fun papp2 () Int)
(declare-fun Irc.Event.EKick () Int)
(declare-fun GHC.Stack.Types.EmptyCallStack () Int)
(declare-fun lit$36$EPong () Str)
(declare-fun fix$36$$36$cshow$35$$35$a2dM () Int)
(declare-fun GHC.List.reverse () Int)
(declare-fun GHC.Integer.Type.$36$WJp$35$ () Int)
(declare-fun lit$36$main () Str)
(declare-fun GHC.List.filter () Int)
(declare-fun lit$36$$39$EInvite () Str)
(declare-fun fromJust () Int)
(declare-fun GHC.Types.KindRepTyConApp () Int)
(declare-fun GHC.List.cycle () Int)
(declare-fun GHC.List.$33$$33$ () Int)
(declare-fun GHC.List.tail () Int)
(declare-fun papp7 () Int)
(declare-fun lq_anf$36$$35$$35$7205759403792802973$35$$35$d2rb () Int)
(declare-fun GHC.Classes.$47$$61$ () Int)
(declare-fun Irc.Event.$36$fShowEvent () Int)
(declare-fun lq_anf$36$$35$$35$7205759403792802988$35$$35$d2rq () Int)
(declare-fun GHC.List.break () Int)
(declare-fun GHC.Types.True () Bool)
(declare-fun GHC.Types.$91$$93$ () Int)
(declare-fun GHC.List.splitAt () Int)
(declare-fun GHC.Base.$43$$43$ () Int)
(declare-fun GHC.Show.$36$dmshow () Int)
(declare-fun GHC.Real.$58$$37$ () Int)
(declare-fun GHC.Tuple.$40$$44$$41$ () Int)
(declare-fun Irc.Event.EPing () Int)
(declare-fun lit$36$Event () Str)
(declare-fun lit$36$EQuit () Str)
(declare-fun GHC.Classes.$38$$38$ () Int)
(declare-fun lit$36$EPrivMsg () Str)
(declare-fun lq_anf$36$$35$$35$7205759403792802993$35$$35$d2rv () Int)
(declare-fun lq_anf$36$$35$$35$7205759403792802963$35$$35$d2r1 () Int)
(declare-fun GHC.Types.GT () Int)
(declare-fun GHC.Classes.C$58$IP () Int)
(declare-fun lit$36$$39$ENumeric () Str)
(declare-fun GHC.Classes.$124$$124$ () Int)
(declare-fun Data.Either.Left () Int)
(declare-fun GHC.List.last () Int)
(declare-fun lq_anf$36$$35$$35$7205759403792802943$35$$35$d2qH () Int)
(declare-fun lit$36$$39$EMode () Str)
(declare-fun GHC.Integer.Type.S$35$ () Int)
(declare-fun GHC.List.scanl1 () Int)
(declare-fun lit$36$ENick () Str)
(declare-fun Data.Either.Right () Int)
(declare-fun GHC.Num.$45$ () Int)
(declare-fun len () Int)
(declare-fun papp6 () Int)
(declare-fun GHC.Base.. () Int)
(declare-fun x_Tuple22 () Int)
(declare-fun lit$36$$39$EPing () Str)
(declare-fun lit$36$EPart () Str)
(declare-fun fix$36$$36$c$47$$61$$35$$35$a2dx () Int)
(declare-fun lit$36$EKick () Str)
(declare-fun GHC.Types.KindRepTypeLitS () Int)
(declare-fun GHC.Real.$36$W$58$$37$ () Int)
(declare-fun lit$36$EJoin () Str)
(declare-fun lit$36$$39$ERawMsg () Str)
(declare-fun isJust () Int)
(declare-fun GHC.List.takeWhile () Int)
(declare-fun GHC.Types.TrNameD () Int)
(declare-fun lq_anf$36$$35$$35$7205759403792802928$35$$35$d2qs () Int)
(declare-fun GHC.Types.KindRepVar () Int)
(declare-fun lit$36$$39$EKick () Str)
(declare-fun GHC.Types.KindRepTypeLitD () Int)
(declare-fun lit$36$ERawMsg () Str)
(declare-fun x_Tuple31 () Int)
(declare-fun GHC.Integer.Type.Jp$35$ () Int)
(declare-fun GHC.IO.Exception.IOError () Int)
(declare-fun GHC.List.take () Int)
(declare-fun GHC.Stack.Types.PushCallStack () Int)
(declare-fun GHC.Classes.$60$$61$ () Int)
(declare-fun GHC.Types.TrNameS () Int)
(declare-fun GHC.Enum.C$58$Bounded () Int)
(declare-fun GHC.Base.map () Int)
(declare-fun lit$36$$39$EJoin () Str)
(declare-fun GHC.Show.C$58$Show () Int)
(declare-fun Irc.Event.EPrivMsg () Int)
(declare-fun GHC.Base.$36$ () Int)
(declare-fun papp1 () Int)
(declare-fun lq_anf$36$$35$$35$7205759403792802968$35$$35$d2r6 () Int)
(declare-fun GHC.Classes.max () Int)
(declare-fun lit$36$EPing () Str)
(declare-fun GHC.Classes.$60$ () Int)
(declare-fun tail () Int)
(declare-fun Irc.Event.ETopic () Int)
(declare-fun lit$36$$39$ENick () Str)
(declare-fun GHC.Types.TyCon () Int)
(declare-fun GHC.Stack.Types.FreezeCallStack () Int)
(declare-fun Irc.Event.EQuit () Int)
(declare-fun lit$36$$39$EPart () Str)
(declare-fun GHC.Num.$42$ () Int)
(declare-fun lq_anf$36$$35$$35$7205759403792802918$35$$35$d2qi () Int)
(declare-fun GHC.Classes.$36$dm$47$$61$ () Int)
(declare-fun lq_anf$36$$35$$35$7205759403792802916$35$$35$d2qg () Int)
(declare-fun Irc.Event.ENotice () Int)
(declare-fun GHC.Prim.tagToEnum$35$ () Int)
(declare-fun GHC.Maybe.Nothing () Int)
(declare-fun lit$36$EMode () Str)
(declare-fun GHC.Types.EQ () Int)
(declare-fun GHC.List.scanr () Int)
(declare-fun GHC.Num.negate () Int)
(declare-fun Irc.Event.EPart () Int)
(declare-fun GHC.Real.fromIntegral () Int)
(declare-fun GHC.Maybe.Just () Int)
(declare-fun Irc.Event.ENick () Int)
(declare-fun GHC.Classes.min () Int)
(declare-fun GHC.List.head () Int)
(declare-fun lit$36$$39$ETopic () Str)
(declare-fun GHC.Types.$36$WKindRepVar () Int)
(declare-fun Irc.Event.$36$fEqEvent () Int)
(declare-fun lq_anf$36$$35$$35$7205759403792802922$35$$35$d2qm () Int)
(declare-fun x_Tuple32 () Int)
(declare-fun lit$36$$39$EQuit () Str)
(declare-fun Irc.Event.$36$con2tag_7GJmFARoqr4GmfegUMkFtq () Int)
(declare-fun GHC.Classes.C$58$Eq () Int)
(declare-fun GHC.List.repeat () Int)
(declare-fun GHC.Classes.not () Int)
(declare-fun GHC.Show.showString () Int)
(declare-fun lit$36$EInvite () Str)
(declare-fun GHC.Num.$43$ () Int)
(declare-fun Data.Tuple.fst () Int)
(declare-fun GHC.Types.KindRepApp () Int)
(declare-fun lq_anf$36$$35$$35$7205759403792802958$35$$35$d2qW () Int)
(declare-fun GHC.Real.C$58$Integral () Int)
(declare-fun lit$36$$39$EPong () Str)
(declare-fun GHC.Err.error () Int)
(declare-fun snd () Int)
(declare-fun fst () Int)
(declare-fun GHC.Prim.$61$$61$$35$ () Int)
(declare-fun lit$36$ETopic () Str)
(declare-fun Data.Tuple.snd () Int)
(declare-fun apply$35$$35$13 (Int (_ BitVec 32)) Bool)
(declare-fun apply$35$$35$9 (Int Str) Bool)
(declare-fun apply$35$$35$6 (Int Bool) Str)
(declare-fun apply$35$$35$11 (Int Str) (_ BitVec 32))
(declare-fun apply$35$$35$15 (Int (_ BitVec 32)) (_ BitVec 32))
(declare-fun apply$35$$35$0 (Int Int) Int)
(declare-fun apply$35$$35$8 (Int Str) Int)
(declare-fun apply$35$$35$1 (Int Int) Bool)
(declare-fun apply$35$$35$7 (Int Bool) (_ BitVec 32))
(declare-fun apply$35$$35$14 (Int (_ BitVec 32)) Str)
(declare-fun apply$35$$35$10 (Int Str) Str)
(declare-fun apply$35$$35$5 (Int Bool) Bool)
(declare-fun apply$35$$35$2 (Int Int) Str)
(declare-fun apply$35$$35$12 (Int (_ BitVec 32)) Int)
(declare-fun apply$35$$35$3 (Int Int) (_ BitVec 32))
(declare-fun apply$35$$35$4 (Int Bool) Int)
(declare-fun coerce$35$$35$13 ((_ BitVec 32)) Bool)
(declare-fun coerce$35$$35$9 (Str) Bool)
(declare-fun coerce$35$$35$6 (Bool) Str)
(declare-fun coerce$35$$35$11 (Str) (_ BitVec 32))
(declare-fun coerce$35$$35$15 ((_ BitVec 32)) (_ BitVec 32))
(declare-fun coerce$35$$35$0 (Int) Int)
(declare-fun coerce$35$$35$8 (Str) Int)
(declare-fun coerce$35$$35$1 (Int) Bool)
(declare-fun coerce$35$$35$7 (Bool) (_ BitVec 32))
(declare-fun coerce$35$$35$14 ((_ BitVec 32)) Str)
(declare-fun coerce$35$$35$10 (Str) Str)
(declare-fun coerce$35$$35$5 (Bool) Bool)
(declare-fun coerce$35$$35$2 (Int) Str)
(declare-fun coerce$35$$35$12 ((_ BitVec 32)) Int)
(declare-fun coerce$35$$35$3 (Int) (_ BitVec 32))
(declare-fun coerce$35$$35$4 (Bool) Int)
(declare-fun smt_lambda$35$$35$13 ((_ BitVec 32) Bool) Int)
(declare-fun smt_lambda$35$$35$9 (Str Bool) Int)
(declare-fun smt_lambda$35$$35$6 (Bool Str) Int)
(declare-fun smt_lambda$35$$35$11 (Str (_ BitVec 32)) Int)
(declare-fun smt_lambda$35$$35$15 ((_ BitVec 32) (_ BitVec 32)) Int)
(declare-fun smt_lambda$35$$35$0 (Int Int) Int)
(declare-fun smt_lambda$35$$35$8 (Str Int) Int)
(declare-fun smt_lambda$35$$35$1 (Int Bool) Int)
(declare-fun smt_lambda$35$$35$7 (Bool (_ BitVec 32)) Int)
(declare-fun smt_lambda$35$$35$14 ((_ BitVec 32) Str) Int)
(declare-fun smt_lambda$35$$35$10 (Str Str) Int)
(declare-fun smt_lambda$35$$35$5 (Bool Bool) Int)
(declare-fun smt_lambda$35$$35$2 (Int Str) Int)
(declare-fun smt_lambda$35$$35$12 ((_ BitVec 32) Int) Int)
(declare-fun smt_lambda$35$$35$3 (Int (_ BitVec 32)) Int)
(declare-fun smt_lambda$35$$35$4 (Bool Int) Int)
(declare-fun lam_arg$35$$35$1$35$$35$0 () Int)
(declare-fun lam_arg$35$$35$2$35$$35$0 () Int)
(declare-fun lam_arg$35$$35$3$35$$35$0 () Int)
(declare-fun lam_arg$35$$35$4$35$$35$0 () Int)
(declare-fun lam_arg$35$$35$5$35$$35$0 () Int)
(declare-fun lam_arg$35$$35$6$35$$35$0 () Int)
(declare-fun lam_arg$35$$35$7$35$$35$0 () Int)
(declare-fun lam_arg$35$$35$1$35$$35$8 () Str)
(declare-fun lam_arg$35$$35$2$35$$35$8 () Str)
(declare-fun lam_arg$35$$35$3$35$$35$8 () Str)
(declare-fun lam_arg$35$$35$4$35$$35$8 () Str)
(declare-fun lam_arg$35$$35$5$35$$35$8 () Str)
(declare-fun lam_arg$35$$35$6$35$$35$8 () Str)
(declare-fun lam_arg$35$$35$7$35$$35$8 () Str)
(declare-fun lam_arg$35$$35$1$35$$35$12 () (_ BitVec 32))
(declare-fun lam_arg$35$$35$2$35$$35$12 () (_ BitVec 32))
(declare-fun lam_arg$35$$35$3$35$$35$12 () (_ BitVec 32))
(declare-fun lam_arg$35$$35$4$35$$35$12 () (_ BitVec 32))
(declare-fun lam_arg$35$$35$5$35$$35$12 () (_ BitVec 32))
(declare-fun lam_arg$35$$35$6$35$$35$12 () (_ BitVec 32))
(declare-fun lam_arg$35$$35$7$35$$35$12 () (_ BitVec 32))
(declare-fun lam_arg$35$$35$1$35$$35$4 () Bool)
(declare-fun lam_arg$35$$35$2$35$$35$4 () Bool)
(declare-fun lam_arg$35$$35$3$35$$35$4 () Bool)
(declare-fun lam_arg$35$$35$4$35$$35$4 () Bool)
(declare-fun lam_arg$35$$35$5$35$$35$4 () Bool)
(declare-fun lam_arg$35$$35$6$35$$35$4 () Bool)
(declare-fun lam_arg$35$$35$7$35$$35$4 () Bool)



(assert (distinct lit$36$ETopic lit$36$$39$EPong lit$36$EInvite lit$36$$39$EQuit lit$36$$39$ETopic lit$36$EMode lit$36$$39$EPart lit$36$$39$ENick lit$36$EPing lit$36$$39$EJoin lit$36$ERawMsg lit$36$$39$EKick lit$36$$39$ERawMsg lit$36$EJoin lit$36$EKick lit$36$EPart lit$36$$39$EPing lit$36$ENick lit$36$$39$EMode lit$36$$39$ENumeric lit$36$EPrivMsg lit$36$EQuit lit$36$Event lit$36$$39$EInvite lit$36$main lit$36$EPong lit$36$$39$EPrivMsg lit$36$ENumeric lit$36$$39$ENotice lit$36$ENotice lit$36$Irc.Event))
(assert (distinct Irc.Event.ENick Irc.Event.EPart Irc.Event.ENotice Irc.Event.EQuit Irc.Event.ETopic Irc.Event.EPrivMsg Irc.Event.EPing Irc.Event.EKick Irc.Event.EJoin Irc.Event.EInvite Irc.Event.ENumeric Irc.Event.EMode Irc.Event.EPong Irc.Event.ERawMsg))

(assert (distinct GHC.Types.True GHC.Types.False))
(assert (distinct GHC.Types.EQ GHC.Types.GT GHC.Types.LT))
(assert (= (strLen lit$36$Irc.Event) 9))
(assert (= (strLen lit$36$ENotice) 7))
(assert (= (strLen lit$36$$39$ENotice) 8))
(assert (= (strLen lit$36$ENumeric) 8))
(assert (= (strLen lit$36$$39$EPrivMsg) 9))
(assert (= (strLen lit$36$EPong) 5))
(assert (= (strLen lit$36$main) 4))
(assert (= (strLen lit$36$$39$EInvite) 8))
(assert (= (strLen lit$36$Event) 5))
(assert (= (strLen lit$36$EQuit) 5))
(assert (= (strLen lit$36$EPrivMsg) 8))
(assert (= (strLen lit$36$$39$ENumeric) 9))
(assert (= (strLen lit$36$$39$EMode) 6))
(assert (= (strLen lit$36$ENick) 5))
(assert (= (strLen lit$36$$39$EPing) 6))
(assert (= (strLen lit$36$EPart) 5))
(assert (= (strLen lit$36$EKick) 5))
(assert (= (strLen lit$36$EJoin) 5))
(assert (= (strLen lit$36$$39$ERawMsg) 8))
(assert (= (strLen lit$36$$39$EKick) 6))
(assert (= (strLen lit$36$ERawMsg) 7))
(assert (= (strLen lit$36$$39$EJoin) 6))
(assert (= (strLen lit$36$EPing) 5))
(assert (= (strLen lit$36$$39$ENick) 6))
(assert (= (strLen lit$36$$39$EPart) 6))
(assert (= (strLen lit$36$EMode) 5))
(assert (= (strLen lit$36$$39$ETopic) 7))
(assert (= (strLen lit$36$$39$EQuit) 6))
(assert (= (strLen lit$36$EInvite) 7))
(assert (= (strLen lit$36$$39$EPong) 6))
(assert (= (strLen lit$36$ETopic) 6))
(exit)
